benchmark/results/graph__10-1000-0.10-02_1/graph__10-1000-0.10-02_1_QuintonOs_Benders_primal_sub.lp
\ This file has been generated by DOcplex
\ ENCODING=ISO-8859-1
\Problem name: Quinton Bounded Benders_primal_sub

Maximize
 obj: tau
Subject To
 c1: tau <= 0.000779423227
 c2: y_a0_proc_1 - tau = 0
 c3: y_a0_proc_1 <= 1
 c4: tau <= 0.000839630563
 c5: y_a1_proc_0 - tau = 0
 c6: y_a1_proc_0 <= 1
 c7: tau <= 0.001642036125
 c8: y_a2_proc_0 + y_a2_proc_1 - tau = 0
 c9: y_a2_proc_0 <= 1
 c10: y_a2_proc_1 <= 0
 c11: tau <= 0.000881834215
 c12: y_a3_proc_0 - tau = 0
 c13: y_a3_proc_0 <= 1
 c14: tau <= 0.002369668246
 c15: y_a4_proc_0 + y_a4_proc_1 - tau = 0
 c16: y_a4_proc_0 <= 0
 c17: y_a4_proc_1 <= 1
 c18: tau <= 0.001644736842
 c19: y_a5_proc_0 + y_a5_proc_1 - tau = 0
 c20: y_a5_proc_0 <= 1
 c21: y_a5_proc_1 <= 0
 c22: tau <= 0.001751313485
 c23: y_a6_proc_0 + y_a6_proc_1 - tau = 0
 c24: y_a6_proc_0 <= 1
 c25: y_a6_proc_1 <= 0
 c26: tau <= 0.001091703057
 c27: y_a7_proc_0 + y_a7_proc_1 - tau = 0
 c28: y_a7_proc_0 <= 0
 c29: y_a7_proc_1 <= 1
 c30: tau <= 0.001949317739
 c31: y_a8_proc_0 + y_a8_proc_1 - tau = 0
 c32: y_a8_proc_0 <= 0
 c33: y_a8_proc_1 <= 1
 c34: tau <= 0.000845308538
 c35: y_a9_proc_1 - tau = 0
 c36: y_a9_proc_1 <= 1
 c37: u_a1 - u_a0 - 1283 y_a0_proc_1 >= -1
 c38: u_a0 - u_a2 - 609 y_a2_proc_0 - 1088 y_a2_proc_1 >= 0
 c39: u_a2 - u_a3 - 1134 y_a3_proc_0 >= 0
 c40: u_a0 - u_a4 - 776 y_a4_proc_0 - 422 y_a4_proc_1 >= 0
 c41: u_a3 - u_a5 - 608 y_a5_proc_0 - 1008 y_a5_proc_1 >= 0
 c42: u_a6 - u_a3 - 1134 y_a3_proc_0 >= -1
 c43: u_a7 - u_a4 - 776 y_a4_proc_0 - 422 y_a4_proc_1 >= 0
 c44: u_a8 - u_a2 - 609 y_a2_proc_0 - 1088 y_a2_proc_1 >= -1
 c45: u_a5 - u_a9 - 1183 y_a9_proc_1 >= -1
 c46: u_a5 - u_a8 - 1154 y_a8_proc_0 - 513 y_a8_proc_1 >= 0
 c47: u_a0 - u_a1 - 1191 y_a1_proc_0 >= 0
 c48: u_a4 - u_a6 - 571 y_a6_proc_0 - 701 y_a6_proc_1 >= 0
 c49: u_a8 - u_a5 - 608 y_a5_proc_0 - 1008 y_a5_proc_1 >= -1
 c50: u_a9 - u_a7 - 826 y_a7_proc_0 - 916 y_a7_proc_1 >= 0
 c51: u_a4 - u_a9 - 1183 y_a9_proc_1 >= -1
 c52: u_a2 - u_a0 - 1283 y_a0_proc_1 >= -1295
 c53: u_a0 - u_a2 - 1088 y_a2_proc_1 >= -1272
 c54: u_a4 - u_a0 - 1283 y_a0_proc_1 >= -11
 c55: u_a0 - u_a4 - 422 y_a4_proc_1 >= 10
 c56: u_a5 - u_a0 - 1283 y_a0_proc_1 >= -1272
 c57: u_a0 - u_a5 - 1008 y_a5_proc_1 >= -1295
 c58: u_a6 - u_a0 - 1283 y_a0_proc_1 >= -1295
 c59: u_a0 - u_a6 - 701 y_a6_proc_1 >= -1272
 c60: u_a7 - u_a0 - 1283 y_a0_proc_1 >= -10
 c61: u_a0 - u_a7 - 916 y_a7_proc_1 >= 9
 c62: u_a8 - u_a0 - 1283 y_a0_proc_1 >= -11
 c63: u_a0 - u_a8 - 513 y_a8_proc_1 >= 10
 c64: u_a9 - u_a0 - 1283 y_a0_proc_1 >= -10
 c65: u_a0 - u_a9 - 1183 y_a9_proc_1 >= 9
 c66: u_a2 - u_a1 - 1191 y_a1_proc_0 >= -10
 c67: u_a1 - u_a2 - 609 y_a2_proc_0 >= 9
 c68: u_a3 - u_a1 - 1191 y_a1_proc_0 >= -10
 c69: u_a1 - u_a3 - 1134 y_a3_proc_0 >= 9
 c70: u_a4 - u_a1 - 1191 y_a1_proc_0 >= -1272
 c71: u_a1 - u_a4 - 776 y_a4_proc_0 >= -1295
 c72: u_a5 - u_a1 - 1191 y_a1_proc_0 >= -10
 c73: u_a1 - u_a5 - 608 y_a5_proc_0 >= 9
 c74: u_a6 - u_a1 - 1191 y_a1_proc_0 >= -11
 c75: u_a1 - u_a6 - 571 y_a6_proc_0 >= 10
 c76: u_a7 - u_a1 - 1191 y_a1_proc_0 >= -1272
 c77: u_a1 - u_a7 - 826 y_a7_proc_0 >= -1295
 c78: u_a8 - u_a1 - 1191 y_a1_proc_0 >= -1295
 c79: u_a1 - u_a8 - 1154 y_a8_proc_0 >= -1272
 c80: u_a3 - u_a2 - 609 y_a2_proc_0 >= -1
 c81: u_a2 - u_a3 - 1134 y_a3_proc_0 >= 0
 c82: u_a4 - u_a2 - 1088 y_a2_proc_1 >= -1295
 c83: u_a4 - u_a2 - 609 y_a2_proc_0 >= -1295
 c84: u_a2 - u_a4 - 422 y_a4_proc_1 >= -1272
 c85: u_a2 - u_a4 - 776 y_a4_proc_0 >= -1272
 c86: u_a5 - u_a2 - 1088 y_a2_proc_1 >= -2567
 c87: u_a5 - u_a2 - 609 y_a2_proc_0 >= -1
 c88: u_a2 - u_a5 - 1008 y_a5_proc_1 >= -2566
 c89: u_a2 - u_a5 - 608 y_a5_proc_0 >= 0
 c90: u_a6 - u_a2 - 1088 y_a2_proc_1 >= -2567
 c91: u_a6 - u_a2 - 609 y_a2_proc_0 >= -1
 c92: u_a2 - u_a6 - 701 y_a6_proc_1 >= -2566
 c93: u_a2 - u_a6 - 571 y_a6_proc_0 >= 0
 c94: u_a7 - u_a2 - 1088 y_a2_proc_1 >= -1295
 c95: u_a7 - u_a2 - 609 y_a2_proc_0 >= -1295
 c96: u_a2 - u_a7 - 916 y_a7_proc_1 >= -1272
 c97: u_a2 - u_a7 - 826 y_a7_proc_0 >= -1272
 c98: u_a8 - u_a2 - 1088 y_a2_proc_1 >= -1295
 c99: u_a8 - u_a2 - 609 y_a2_proc_0 >= -1295
 c100: u_a2 - u_a8 - 513 y_a8_proc_1 >= -1272
 c101: u_a2 - u_a8 - 1154 y_a8_proc_0 >= -1272
 c102: u_a9 - u_a2 - 1088 y_a2_proc_1 >= -1295
 c103: u_a2 - u_a9 - 1183 y_a9_proc_1 >= -1272
 c104: u_a4 - u_a3 - 1134 y_a3_proc_0 >= -1272
 c105: u_a3 - u_a4 - 776 y_a4_proc_0 >= -1295
 c106: u_a5 - u_a3 - 1134 y_a3_proc_0 >= -1
 c107: u_a3 - u_a5 - 608 y_a5_proc_0 >= 0
 c108: u_a6 - u_a3 - 1134 y_a3_proc_0 >= -1
 c109: u_a3 - u_a6 - 571 y_a6_proc_0 >= 0
 c110: u_a7 - u_a3 - 1134 y_a3_proc_0 >= -1272
 c111: u_a3 - u_a7 - 826 y_a7_proc_0 >= -1295
 c112: u_a8 - u_a3 - 1134 y_a3_proc_0 >= -1295
 c113: u_a3 - u_a8 - 1154 y_a8_proc_0 >= -1272
 c114: u_a5 - u_a4 - 422 y_a4_proc_1 >= -1272
 c115: u_a5 - u_a4 - 776 y_a4_proc_0 >= -1272
 c116: u_a4 - u_a5 - 1008 y_a5_proc_1 >= -1295
 c117: u_a4 - u_a5 - 608 y_a5_proc_0 >= -1295
 c118: u_a6 - u_a4 - 422 y_a4_proc_1 >= -1295
 c119: u_a6 - u_a4 - 776 y_a4_proc_0 >= -1295
 c120: u_a4 - u_a6 - 701 y_a6_proc_1 >= -1272
 c121: u_a4 - u_a6 - 571 y_a6_proc_0 >= -1272
 c122: u_a7 - u_a4 - 422 y_a4_proc_1 >= 0
 c123: u_a7 - u_a4 - 776 y_a4_proc_0 >= -2566
 c124: u_a4 - u_a7 - 916 y_a7_proc_1 >= -1
 c125: u_a4 - u_a7 - 826 y_a7_proc_0 >= -2567
 c126: u_a8 - u_a4 - 422 y_a4_proc_1 >= -1
 c127: u_a8 - u_a4 - 776 y_a4_proc_0 >= -2567
 c128: u_a4 - u_a8 - 513 y_a8_proc_1 >= 0
 c129: u_a4 - u_a8 - 1154 y_a8_proc_0 >= -2566
 c130: u_a9 - u_a4 - 422 y_a4_proc_1 >= 0
 c131: u_a4 - u_a9 - 1183 y_a9_proc_1 >= -1
 c132: u_a6 - u_a5 - 1008 y_a5_proc_1 >= -2567
 c133: u_a6 - u_a5 - 608 y_a5_proc_0 >= -1
 c134: u_a5 - u_a6 - 701 y_a6_proc_1 >= -2566
 c135: u_a5 - u_a6 - 571 y_a6_proc_0 >= 0
 c136: u_a7 - u_a5 - 1008 y_a5_proc_1 >= -1272
 c137: u_a7 - u_a5 - 608 y_a5_proc_0 >= -1272
 c138: u_a5 - u_a7 - 916 y_a7_proc_1 >= -1295
 c139: u_a5 - u_a7 - 826 y_a7_proc_0 >= -1295
 c140: u_a8 - u_a5 - 1008 y_a5_proc_1 >= -1295
 c141: u_a8 - u_a5 - 608 y_a5_proc_0 >= -1295
 c142: u_a5 - u_a8 - 513 y_a8_proc_1 >= -1272
 c143: u_a5 - u_a8 - 1154 y_a8_proc_0 >= -1272
 c144: u_a9 - u_a5 - 1008 y_a5_proc_1 >= -1272
 c145: u_a5 - u_a9 - 1183 y_a9_proc_1 >= -1295
 c146: u_a7 - u_a6 - 701 y_a6_proc_1 >= -1295
 c147: u_a7 - u_a6 - 571 y_a6_proc_0 >= -1295
 c148: u_a6 - u_a7 - 916 y_a7_proc_1 >= -1272
 c149: u_a6 - u_a7 - 826 y_a7_proc_0 >= -1272
 c150: u_a8 - u_a6 - 701 y_a6_proc_1 >= -1295
 c151: u_a8 - u_a6 - 571 y_a6_proc_0 >= -1295
 c152: u_a6 - u_a8 - 513 y_a8_proc_1 >= -1272
 c153: u_a6 - u_a8 - 1154 y_a8_proc_0 >= -1272
 c154: u_a9 - u_a6 - 701 y_a6_proc_1 >= -1272
 c155: u_a6 - u_a9 - 1183 y_a9_proc_1 >= -1295
 c156: u_a8 - u_a7 - 916 y_a7_proc_1 >= -1
 c157: u_a8 - u_a7 - 826 y_a7_proc_0 >= -2567
 c158: u_a7 - u_a8 - 513 y_a8_proc_1 >= 0
 c159: u_a7 - u_a8 - 1154 y_a8_proc_0 >= -2566
 c160: u_a9 - u_a7 - 916 y_a7_proc_1 >= 0
 c161: u_a7 - u_a9 - 1183 y_a9_proc_1 >= -1
 c162: u_a9 - u_a8 - 513 y_a8_proc_1 >= 1
 c163: u_a8 - u_a9 - 1183 y_a9_proc_1 >= -2

Bounds
End
