benchmark/results/graph__10-1000-0.10-02_1/graph__10-1000-0.10-02_1_QuintonOs_Benders_primal_sub.txt
solution for: Quinton Bounded Benders_primal_sub
objective: 0.000231642
status: OPTIMAL_SOLUTION(2)
u_a0=10.491
u_a1=10.132
u_a2=0.812
u_a3=0.549
u_a4=0.393
u_a5=0.408
u_a7=0.788
u_a9=1.119
tau=0.000
y_a0_proc_1=0.000
y_a1_proc_0=0.000
y_a2_proc_0=0.000
y_a3_proc_0=0.000
y_a4_proc_1=0.000
y_a5_proc_0=0.000
y_a6_proc_0=0.000
y_a7_proc_1=0.000
y_a8_proc_1=0.000
y_a9_proc_1=0.000
